10
60 100 15
234 274 15
293 303 15
144 194 15
442 472 15
566 596 5
534 584 10
689 709 10
391 401 15
415 455 15
0 60 80 40 90 80 90 80 80 90 90 
60 0 20 20 70 90 30 30 100 100 100 
80 20 0 40 70 100 10 30 110 110 110 
40 20 40 0 60 70 50 40 80 80 80 
90 70 70 60 0 60 60 40 70 60 60 
80 90 100 70 60 0 100 80 10 10 10 
90 30 10 50 60 100 0 20 110 110 110 
80 30 30 40 40 80 20 0 90 90 90 
80 100 110 80 70 10 110 90 0 10 10 
90 100 110 80 60 10 110 90 10 0 0 
90 100 110 80 60 10 110 90 10 0 0 